
Gurobi 8.1.1 (win64, Python) logging started 03/21/22 16:10:12

Academic license - for non-commercial use only

Gurobi 8.1.1 (win64, Python) logging started 03/21/22 16:15:47

Academic license - for non-commercial use only

Gurobi 8.1.1 (win64, Python) logging started 03/21/22 16:16:05

Academic license - for non-commercial use only

Gurobi 8.1.1 (win64, Python) logging started 03/21/22 16:16:41

Academic license - for non-commercial use only

Gurobi 8.1.1 (win64, Python) logging started 03/22/22 10:33:35

Academic license - for non-commercial use only

Gurobi 8.1.1 (win64, Python) logging started 03/22/22 10:45:54

Academic license - for non-commercial use only

Gurobi 8.1.1 (win64, Python) logging started 03/22/22 10:47:06

Academic license - for non-commercial use only

Gurobi 8.1.1 (win64, Python) logging started 03/22/22 10:47:53

Academic license - for non-commercial use only

Gurobi 8.1.1 (win64, Python) logging started 03/22/22 10:50:32

Academic license - for non-commercial use only

Gurobi 8.1.1 (win64, Python) logging started 03/22/22 10:50:52

Academic license - for non-commercial use only

Gurobi 8.1.1 (win64, Python) logging started 03/22/22 10:55:30

Academic license - for non-commercial use only

Gurobi 8.1.1 (win64, Python) logging started 03/22/22 10:56:17

Academic license - for non-commercial use only

Gurobi 8.1.1 (win64, Python) logging started 03/22/22 11:03:45

Academic license - for non-commercial use only

Gurobi 8.1.1 (win64, Python) logging started 03/22/22 11:04:54

Academic license - for non-commercial use only

Gurobi 8.1.1 (win64, Python) logging started 03/22/22 11:09:18

Academic license - for non-commercial use only

Gurobi 8.1.1 (win64, Python) logging started 03/22/22 11:20:26

Academic license - for non-commercial use only

Gurobi 8.1.1 (win64, Python) logging started 03/22/22 11:20:36

Academic license - for non-commercial use only

Gurobi 8.1.1 (win64, Python) logging started 03/22/22 11:20:44

Academic license - for non-commercial use only

Gurobi 8.1.1 (win64, Python) logging started 03/22/22 11:20:51

Academic license - for non-commercial use only

Gurobi 8.1.1 (win64, Python) logging started 03/22/22 11:21:28

Academic license - for non-commercial use only

Gurobi 8.1.1 (win64, Python) logging started 03/22/22 11:21:41

Academic license - for non-commercial use only

Gurobi 8.1.1 (win64, Python) logging started 03/22/22 11:21:49

Academic license - for non-commercial use only

Gurobi 8.1.1 (win64, Python) logging started 03/22/22 11:22:06

Academic license - for non-commercial use only

Gurobi 8.1.1 (win64, Python) logging started 03/22/22 11:22:34

Academic license - for non-commercial use only

Gurobi 8.1.1 (win64, Python) logging started 03/22/22 11:22:38

Academic license - for non-commercial use only

Gurobi 8.1.1 (win64, Python) logging started 03/22/22 11:29:18

Academic license - for non-commercial use only

Gurobi 8.1.1 (win64, Python) logging started 03/22/22 11:29:49

Academic license - for non-commercial use only

Gurobi 8.1.1 (win64, Python) logging started 03/22/22 11:30:43

Academic license - for non-commercial use only

Gurobi 8.1.1 (win64, Python) logging started 03/22/22 11:31:21

Academic license - for non-commercial use only

Gurobi 8.1.1 (win64, Python) logging started 03/22/22 11:31:49

Academic license - for non-commercial use only

Gurobi 8.1.1 (win64, Python) logging started 03/22/22 11:32:38

Academic license - for non-commercial use only

Gurobi 8.1.1 (win64, Python) logging started 03/22/22 11:33:03

Academic license - for non-commercial use only

Gurobi 8.1.1 (win64, Python) logging started 03/22/22 11:33:32

Academic license - for non-commercial use only

Gurobi 8.1.1 (win64, Python) logging started 03/22/22 11:34:02

Academic license - for non-commercial use only

Gurobi 8.1.1 (win64, Python) logging started 03/22/22 11:35:14

Academic license - for non-commercial use only

Gurobi 8.1.1 (win64, Python) logging started 03/22/22 12:38:14

Academic license - for non-commercial use only

Gurobi 8.1.1 (win64, Python) logging started 03/22/22 12:38:24

Academic license - for non-commercial use only

Gurobi 8.1.1 (win64, Python) logging started 03/22/22 12:38:31

Academic license - for non-commercial use only

Gurobi 8.1.1 (win64, Python) logging started 03/22/22 12:38:57

Academic license - for non-commercial use only

Gurobi 8.1.1 (win64, Python) logging started 03/22/22 12:39:06

Academic license - for non-commercial use only

Gurobi 8.1.1 (win64, Python) logging started 03/22/22 12:40:44

Academic license - for non-commercial use only

Gurobi 8.1.1 (win64, Python) logging started 03/22/22 12:41:29

Academic license - for non-commercial use only

Gurobi 8.1.1 (win64, Python) logging started 03/22/22 12:41:58

Academic license - for non-commercial use only

Gurobi 8.1.1 (win64, Python) logging started 03/22/22 12:43:34

Academic license - for non-commercial use only

Gurobi 8.1.1 (win64, Python) logging started 03/22/22 12:47:25

Academic license - for non-commercial use only

Gurobi 8.1.1 (win64, Python) logging started 03/22/22 12:47:38

Academic license - for non-commercial use only

Gurobi 8.1.1 (win64, Python) logging started 03/22/22 12:50:25

Academic license - for non-commercial use only

Gurobi 8.1.1 (win64, Python) logging started 03/22/22 12:51:09

Academic license - for non-commercial use only

Gurobi 8.1.1 (win64, Python) logging started 03/22/22 12:52:01

Academic license - for non-commercial use only

Gurobi 8.1.1 (win64, Python) logging started 03/22/22 12:52:24

Academic license - for non-commercial use only

Gurobi 8.1.1 (win64, Python) logging started 03/22/22 12:53:17

Academic license - for non-commercial use only

Gurobi 8.1.1 (win64, Python) logging started 03/22/22 12:53:29

Academic license - for non-commercial use only

Gurobi 8.1.1 (win64, Python) logging started 03/22/22 12:54:42

Academic license - for non-commercial use only

Gurobi 8.1.1 (win64, Python) logging started 03/22/22 13:25:29

Academic license - for non-commercial use only

Gurobi 8.1.1 (win64, Python) logging started 03/22/22 13:25:47

Academic license - for non-commercial use only

Gurobi 8.1.1 (win64, Python) logging started 03/22/22 13:26:54

Academic license - for non-commercial use only

Gurobi 8.1.1 (win64, Python) logging started 03/22/22 13:28:36

Academic license - for non-commercial use only

Gurobi 8.1.1 (win64, Python) logging started 03/22/22 13:28:49

Academic license - for non-commercial use only

Gurobi 8.1.1 (win64, Python) logging started 03/22/22 13:30:13

Academic license - for non-commercial use only

Gurobi 8.1.1 (win64, Python) logging started 03/22/22 13:30:58

Academic license - for non-commercial use only
